(set-option :produce-unsat-cores true) ; enable generation of unsat cores
(set-option :produce-models true) ; enable model generation
(set-logic ALL)
(declare-sort var2145 0)
(declare-sort void 0)
(declare-sort Iterator 0)
(declare-sort ClassObject 0)
(declare-fun var2145_getOutputLanguage/-1523304050 () String)
(define-fun equalsIgnoreCase/-92311102 ((this String) (another String)) Bool (let ((upper_this (str.replace_all (str.replace_all (str.replace_all (str.replace_all (str.replace_all (str.replace_all (str.replace_all (str.replace_all (str.replace_all (str.replace_all (str.replace_all (str.replace_all (str.replace_all (str.replace_all (str.replace_all (str.replace_all (str.replace_all (str.replace_all (str.replace_all (str.replace_all (str.replace_all (str.replace_all (str.replace_all (str.replace_all (str.replace_all (str.replace_all this "a" "A") "b" "B") "c" "C") "d" "D") "e" "E") "f" "F") "g" "G") "h" "H") "i" "I") "j" "J") "k" "K") "l" "L") "m" "M") "n" "N") "o" "O") "p" "P") "q" "Q") "r" "R") "s" "S") "t" "T") "u" "U") "v" "V") "w" "W") "x" "X") "y" "Y") "z" "Z")) (upper_another (str.replace_all (str.replace_all (str.replace_all (str.replace_all (str.replace_all (str.replace_all (str.replace_all (str.replace_all (str.replace_all (str.replace_all (str.replace_all (str.replace_all (str.replace_all (str.replace_all (str.replace_all (str.replace_all (str.replace_all (str.replace_all (str.replace_all (str.replace_all (str.replace_all (str.replace_all (str.replace_all (str.replace_all (str.replace_all (str.replace_all another "a" "A") "b" "B") "c" "C") "d" "D") "e" "E") "f" "F") "g" "G") "h" "H") "i" "I") "j" "J") "k" "K") "l" "L") "m" "M") "n" "N") "o" "O") "p" "P") "q" "Q") "r" "R") "s" "S") "t" "T") "u" "U") "v" "V") "w" "W") "x" "X") "y" "Y") "z" "Z"))) (= upper_this upper_another)))
(define-const var2076 String var2145_getOutputLanguage/-1523304050) ; Statement: $r0 = staticinvoke <org.javacc.parser.Options: java.lang.String getOutputLanguage()>() 
(assert true)
(define-const var2193 Bool (equalsIgnoreCase/-92311102 var2076 "java")) ; Statement: $z0 = virtualinvoke $r0.<java.lang.String: boolean equalsIgnoreCase(java.lang.String)>("java") 
 ; Statement: return $z0 
(check-sat)
(get-model)
(get-unsat-core)
; {var2145_getOutputLanguage/-1523304050=([], java.lang.String), equalsIgnoreCase/-92311102=([java.lang.String, java.lang.String], boolean)}
; {var2145=org.javacc.parser.Options, var2076=$r0, var2193=$z0}
; {org.javacc.parser.Options=var2145, $r0=var2076, $z0=var2193}
;seq <java.lang.String: boolean equalsIgnoreCase(java.lang.String)>
;cnt {"<java.lang.String: boolean equalsIgnoreCase(java.lang.String)>": 1}
;stmts $r0 = staticinvoke <org.javacc.parser.Options: java.lang.String getOutputLanguage()>();	$z0 = virtualinvoke $r0.<java.lang.String: boolean equalsIgnoreCase(java.lang.String)>("java");	return $z0
;block_num 1